submitit INFO (2023-05-02 18:51:25,277) - Starting with JobEnvironment(job_id=27743, hostname=cpunode2, local_rank=3(5), node=0(1), global_rank=3(5))
submitit INFO (2023-05-02 18:51:25,277) - Loading pickle: /h/30/pashootan/Matrix-Mult-CP/src/../logs/4/1x3x2_6_May02_18:51:22/27743_submitted.pkl
 ! --------------------------------------------------- CP Optimizer 22.1.1.0 --
 ! Satisfiability problem - 66 variables, 36 constraints
 ! TimeLimit            = 7200
 ! Workers              = 8
 ! LogPeriod            = 10000000
 ! RandomSeed           = 3100
 ! Initial process time : 0.00s (0.00s extraction + 0.00s propagation)
 !  . Log search space  : 104.6 (before), 104.6 (after)
 !  . Memory usage      : 398.6 kB (before), 398.6 kB (after)
 ! Using parallel search with 8 workers.
 ! ----------------------------------------------------------------------------
 !               Branches  Non-fixed    W       Branch decision
 *                   7889  0.07s        1         0  = V5_3
 ! ----------------------------------------------------------------------------
 ! Search completed, 1 solution found.
 ! ----------------------------------------------------------------------------
 ! Number of branches     : 71823
 ! Number of fails        : 32911
 ! Total memory usage     : 6.8 MB (6.8 MB CP Optimizer + 0.0 MB Concert)
 ! Time spent in solve    : 0.07s (0.07s engine + 0.00s extraction)
 ! Search speed (br. / s) : 1197050.0
 ! ----------------------------------------------------------------------------
Feasible
Model is valid
Saving solution to: /h/30/pashootan/Matrix-Mult-CP/logs/4/1x3x2_6_May02_18:51:22/27743_3_solution.txt
Saving stats to: /h/30/pashootan/Matrix-Mult-CP/logs/4/1x3x2_6_May02_18:51:22/27743_3_stats.csv
submitit INFO (2023-05-02 18:51:25,733) - Job completed successfully
